Version identifier: 22.1.0.0 | 2022-03-09 | 1a383f8ce
CPXPARAM_Threads                                 1
CPXPARAM_MIP_Strategy_VariableSelect             3
CPXPARAM_TimeLimit                               599.99998334999998
1 of 1 MIP starts provided solutions.
MIP start 'm1' defined initial solution with objective 1.0000.
Tried aggregator 1 time.
MIP Presolve eliminated 16 rows and 0 columns.
Reduced MIP has 4503 rows, 10000 columns, and 115588 nonzeros.
Reduced MIP has 10000 binaries, 0 generals, 0 SOSs, and 0 indicators.
Presolve time = 0.07 sec. (53.89 ticks)
Probing time = 0.01 sec. (4.72 ticks)
Tried aggregator 1 time.
Detecting symmetries...
Reduced MIP has 4503 rows, 10000 columns, and 115588 nonzeros.
Reduced MIP has 10000 binaries, 0 generals, 0 SOSs, and 0 indicators.
Presolve time = 0.08 sec. (64.13 ticks)
Probing time = 0.01 sec. (4.72 ticks)
Clique table members: 2492.
MIP emphasis: balance optimality and feasibility.
MIP search method: dynamic search.
Parallel mode: none, using 1 thread.
Root relaxation solution time = 2.78 sec. (2492.79 ticks)

        Nodes                                         Cuts/
   Node  Left     Objective  IInf  Best Integer    Best Bound    ItCnt     Gap

*     0+    0                            1.0000    10000.0000              --- 
      0     0      500.0000  2003        1.0000      500.0000     8077     --- 
*     0+    0                          500.0000      500.0000             0.00%
      0     0        cutoff            500.0000      500.0000     8077    0.00%
Elapsed time = 33.21 sec. (33252.53 ticks, tree = 0.01 MB, solutions = 2)

Root node processing (before b&c):
  Real time             =   33.21 sec. (33252.92 ticks)
Sequential b&c:
  Real time             =    0.00 sec. (0.00 ticks)
                          ------------
Total (root+branch&cut) =   33.21 sec. (33252.92 ticks)
16
15
5
16
15
5
16
6
18
19
6
1
19
12
5
19
6
18
16
11
1
16
15
5
16
15
5
16
15
1
13
8
7
0
17
7
13
8
7
0
8
7
13
17
7
0
8
7
13
17
7
13
8
7
13
8
7
13
17
18
10
14
1
9
14
1
9
14
18
9
14
5
9
14
4
10
17
2
10
17
4
10
8
18
7
16
18
15
3
13
11
14
0
11
3
13
11
14
1
9
14
18
0
8
7
13
14
11
0
3
15
0
14
1
9
3
5
9
14
2
9
14
2
9
3
18
9
14
18
10
17
18
10
3
2
9
14
2
9
3
2
9
14
18
9
14
18
9
3
5
9
3
5
9
14
18
9
3
5
9
14
18
9
3
18
15
16
5
6
19
5
6
19
5
12
19
1
6
19
5
6
19
2
12
19
5
6
19
2
12
19
2
18
19
2
18
19
12
18
19
6
2
16
11
4
16
11
5
16
15
4
16
15
4
16
12
7
16
12
7
16
18
7
16
5
15
16
5
15
16
1
11
16
4
11
16
4
6
19
2
12
19
5
18
19
2
6
19
5
6
19
18
6
19
4
2
9
3
4
10
8
4
10
17
2
10
17
4
10
17
5
10
17
2
10
8
1
10
8
4
10
8
5
10
17
2
10
8
4
10
17
1
10
8
4
10
8
5
10
3
18
9
3
1
9
14
1
10
8
4
10
17
18
10
8
4
10
17
2
10
8
4
1
19
12
18
19
6
1
19
12
18
19
12
18
19
12
4
19
12
4
19
1
6
19
18
6
19
4
6
19
18
6
19
5
6
19
4
6
19
2
6
16
4
15
16
4
11
13
3
11
13
3
11
0
14
15
0
14
15
0
14
15
13
3
11
0
14
11
0
14
15
0
14
11
0
3
11
13
3
15
13
3
11
13
3
15
0
14
18
10
17
5
10
8
1
10
8
1
13
8
7
0
17
7
0
14
5
9
3
18
9
14
2
2
19
6
2
10
17
18
0
11
3
13
11
14
0
15
3
13
11
3
0
11
3
13
15
3
0
7
17
13
7
8
13
7
8
0
7
8
13
7
8
0
7
8
13
7
8
13
18
17
10
2
2
19
2
6
16
7
1
12
19
5
6
19
2
12
19
Primal:	500
Dual:	500
Status:	Optimal
Time:	33.23
